
Gurobi 10.0.0 (linux64) logging started Thu Nov 17 17:07:39 2022

Set parameter LogFile to value "../results/k04_n150_d015/k04_n160_d020_i160-042_RP-MILO_log.txt"
Set parameter LazyConstraints to value 1
Gurobi Optimizer version 10.0.0 build v10.0.0rc2 (linux64)

CPU model: Intel(R) Xeon(R) CPU E5-2630 v4 @ 2.20GHz, instruction set [SSE2|AVX|AVX2]
Thread count: 20 physical cores, 40 logical processors, using up to 10 threads

Optimize a model with 16010556 rows, 11021 columns and 48031668 nonzeros
Model fingerprint: 0xfdd6ef70
Coefficient statistics:
  Matrix range     [1e+00, 1e+00]
  Objective range  [8e+01, 3e+02]
  Bounds range     [1e+00, 1e+00]
  RHS range        [1e+00, 1e+00]
Presolve time: 26.12s
Presolved: 1487694 rows, 11021 columns, 4463082 nonzeros

Concurrent LP optimizer: primal simplex, dual simplex, and barrier
Showing barrier log only...

Presolve time: 28.23s

Solved with primal simplex
Iteration    Objective       Primal Inf.    Dual Inf.      Time
       0    2.7722300e+05   0.000000e+00   0.000000e+00     37s

Solved in 0 iterations and 37.41 seconds (15.93 work units)
Optimal objective  2.772230000e+05
Gurobi Optimizer version 10.0.0 build v10.0.0rc2 (linux64)

CPU model: Intel(R) Xeon(R) CPU E5-2630 v4 @ 2.20GHz, instruction set [SSE2|AVX|AVX2]
Thread count: 20 physical cores, 40 logical processors, using up to 10 threads

Optimize a model with 16013890 rows, 11021 columns and 48065008 nonzeros
Coefficient statistics:
  Matrix range     [1e+00, 1e+00]
  Objective range  [8e+01, 3e+02]
  Bounds range     [1e+00, 1e+00]
  RHS range        [1e+00, 1e+00]
Iteration    Objective       Primal Inf.    Dual Inf.      Time
       0    2.7722300e+05   3.334000e+03   0.000000e+00     11s
     566    2.7717400e+05   0.000000e+00   0.000000e+00     17s

Solved in 566 iterations and 17.71 seconds (9.68 work units)
Optimal objective  2.771740000e+05
Gurobi Optimizer version 10.0.0 build v10.0.0rc2 (linux64)

CPU model: Intel(R) Xeon(R) CPU E5-2630 v4 @ 2.20GHz, instruction set [SSE2|AVX|AVX2]
Thread count: 20 physical cores, 40 logical processors, using up to 10 threads

Optimize a model with 16018164 rows, 11021 columns and 48107748 nonzeros
Coefficient statistics:
  Matrix range     [1e+00, 1e+00]
  Objective range  [8e+01, 3e+02]
  Bounds range     [1e+00, 1e+00]
  RHS range        [1e+00, 1e+00]
Iteration    Objective       Primal Inf.    Dual Inf.      Time
       0    2.7717400e+05   4.274000e+03   0.000000e+00     10s
    1240    2.7708428e+05   4.709990e+04   0.000000e+00     50s
    1523    2.7707850e+05   0.000000e+00   0.000000e+00     57s

Solved in 1523 iterations and 63.61 seconds (76.25 work units)
Optimal objective  2.770785000e+05
Gurobi Optimizer version 10.0.0 build v10.0.0rc2 (linux64)

CPU model: Intel(R) Xeon(R) CPU E5-2630 v4 @ 2.20GHz, instruction set [SSE2|AVX|AVX2]
Thread count: 20 physical cores, 40 logical processors, using up to 10 threads

Optimize a model with 16021502 rows, 11021 columns and 48141128 nonzeros
Coefficient statistics:
  Matrix range     [1e+00, 1e+00]
  Objective range  [8e+01, 3e+02]
  Bounds range     [1e+00, 1e+00]
  RHS range        [1e+00, 1e+00]
Iteration    Objective       Primal Inf.    Dual Inf.      Time
       0    2.7707850e+05   3.338000e+03   0.000000e+00     11s
     357    2.7702750e+05   0.000000e+00   0.000000e+00     17s

Solved in 357 iterations and 17.95 seconds (14.33 work units)
Optimal objective  2.770275000e+05
Gurobi Optimizer version 10.0.0 build v10.0.0rc2 (linux64)

CPU model: Intel(R) Xeon(R) CPU E5-2630 v4 @ 2.20GHz, instruction set [SSE2|AVX|AVX2]
Thread count: 20 physical cores, 40 logical processors, using up to 10 threads

Optimize a model with 16024836 rows, 11021 columns and 48174468 nonzeros
Coefficient statistics:
  Matrix range     [1e+00, 1e+00]
  Objective range  [8e+01, 3e+02]
  Bounds range     [1e+00, 1e+00]
  RHS range        [1e+00, 1e+00]
Iteration    Objective       Primal Inf.    Dual Inf.      Time
       0    2.7702750e+05   3.334000e+03   0.000000e+00      9s
    1260    2.7695908e+05   7.318836e+02   0.000000e+00     44s
    1464    2.7695908e+05   0.000000e+00   0.000000e+00     48s

Solved in 1464 iterations and 53.91 seconds (74.21 work units)
Optimal objective  2.769590833e+05
Gurobi Optimizer version 10.0.0 build v10.0.0rc2 (linux64)

CPU model: Intel(R) Xeon(R) CPU E5-2630 v4 @ 2.20GHz, instruction set [SSE2|AVX|AVX2]
Thread count: 20 physical cores, 40 logical processors, using up to 10 threads

Optimize a model with 16028170 rows, 11021 columns and 48207808 nonzeros
Coefficient statistics:
  Matrix range     [1e+00, 1e+00]
  Objective range  [8e+01, 3e+02]
  Bounds range     [1e+00, 1e+00]
  RHS range        [1e+00, 1e+00]
Iteration    Objective       Primal Inf.    Dual Inf.      Time
       0    2.7695908e+05   3.310250e+03   0.000000e+00      9s
    1280    2.7683492e+05   3.398277e+05   0.000000e+00     43s
    2080    2.7680621e+05   1.462804e+06   0.000000e+00    106s
    2490    2.7680598e+05   8.409414e+05   0.000000e+00    143s
    2960    2.7678099e+05   1.725468e+05   0.000000e+00    175s
    3530    2.7676844e+05   1.684444e+04   0.000000e+00    214s
    4150    2.7676605e+05   5.597322e+02   0.000000e+00    241s
    4720    2.7676488e+05   1.727424e+03   0.000000e+00    263s
    5140    2.7676488e+05   4.193111e+02   0.000000e+00    282s
    5174    2.7676489e+05   0.000000e+00   0.000000e+00    291s

Solved in 5174 iterations and 290.90 seconds (506.48 work units)
Optimal objective  2.767648889e+05
Gurobi Optimizer version 10.0.0 build v10.0.0rc2 (linux64)

CPU model: Intel(R) Xeon(R) CPU E5-2630 v4 @ 2.20GHz, instruction set [SSE2|AVX|AVX2]
Thread count: 20 physical cores, 40 logical processors, using up to 10 threads

Optimize a model with 16034095 rows, 11021 columns and 48267058 nonzeros
Coefficient statistics:
  Matrix range     [1e+00, 1e+00]
  Objective range  [8e+01, 3e+02]
  Bounds range     [1e+00, 1e+00]
  RHS range        [1e+00, 1e+00]
Iteration    Objective       Primal Inf.    Dual Inf.      Time
       0    2.7676489e+05   5.909389e+03   0.000000e+00     12s
    1100    2.7668383e+05   1.322309e+07   0.000000e+00     55s
    1690    2.7666378e+05   1.196450e+07   0.000000e+00    119s
    2050    2.7658073e+05   3.054900e+07   0.000000e+00    180s
    2320    2.7656458e+05   1.803763e+08   0.000000e+00    220s
    2530    2.7656458e+05   1.914222e+08   0.000000e+00    259s
    2830    2.7652258e+05   9.998228e+07   0.000000e+00    285s
    3110    2.7649869e+05   8.064131e+06   0.000000e+00    307s
    3390    2.7649234e+05   2.594824e+07   0.000000e+00    330s
    3730    2.7646168e+05   6.804755e+07   0.000000e+00    355s
    3950    2.7646168e+05   1.087673e+07   0.000000e+00    383s
    4200    2.7645485e+05   8.450106e+06   0.000000e+00    409s
    4450    2.7644701e+05   7.563124e+06   0.000000e+00    432s
    4680    2.7644587e+05   6.509376e+06   0.000000e+00    454s
    4940    2.7643717e+05   4.764496e+06   0.000000e+00    477s
    5180    2.7643404e+05   9.339583e+06   0.000000e+00    499s
    5420    2.7643301e+05   2.727306e+06   0.000000e+00    521s
    5660    2.7641855e+05   2.376347e+06   0.000000e+00    549s
    5910    2.7641470e+05   5.665312e+07   0.000000e+00    576s
    6140    2.7641357e+05   2.440415e+06   0.000000e+00    601s
    6380    2.7641255e+05   7.061556e+05   0.000000e+00    626s
    6610    2.7641169e+05   8.847311e+05   0.000000e+00    651s
    6870    2.7639249e+05   5.528568e+06   0.000000e+00    677s
    7120    2.7638961e+05   4.394214e+06   0.000000e+00    700s
    7360    2.7638961e+05   5.254216e+05   0.000000e+00    726s
    7610    2.7638828e+05   2.718570e+05   0.000000e+00    752s
    7850    2.7638828e+05   3.432720e+06   0.000000e+00    780s
    8090    2.7638828e+05   1.113403e+06   0.000000e+00    805s
    8350    2.7638633e+05   1.394316e+08   0.000000e+00    829s
    8590    2.7638595e+05   3.362764e+06   0.000000e+00    851s
    8850    2.7638567e+05   7.702047e+05   0.000000e+00    873s
    9110    2.7638555e+05   3.401900e+06   0.000000e+00    896s
    9380    2.7638400e+05   8.688994e+05   0.000000e+00    919s
    9650    2.7638345e+05   3.770148e+06   0.000000e+00    942s
    9940    2.7638195e+05   3.190537e+05   0.000000e+00    964s
   10200    2.7638164e+05   5.076733e+05   0.000000e+00    987s
   10480    2.7638164e+05   7.881742e+04   0.000000e+00   1009s
   10830    2.7638158e+05   3.550190e+05   0.000000e+00   1031s
   11290    2.7637256e+05   2.776874e+07   0.000000e+00   1056s
   11650    2.7637152e+05   1.203171e+06   0.000000e+00   1079s
   11990    2.7636729e+05   8.874185e+05   0.000000e+00   1102s
   12320    2.7636325e+05   4.889319e+05   0.000000e+00   1124s
   12720    2.7635443e+05   2.276280e+05   0.000000e+00   1148s
   13130    2.7635069e+05   2.887134e+05   0.000000e+00   1171s
   13520    2.7635030e+05   5.181120e+05   0.000000e+00   1194s
   13910    2.7634988e+05   1.548750e+06   0.000000e+00   1217s
   14340    2.7634986e+05   1.290609e+05   0.000000e+00   1240s
   14800    2.7634985e+05   2.768339e+05   0.000000e+00   1264s
   15540    2.7634839e+05   6.181213e+02   0.000000e+00   1301s
   16360    2.7634642e+05   1.675777e+02   0.000000e+00   1332s
   16522    2.7634642e+05   0.000000e+00   0.000000e+00   1341s

Solved in 16522 iterations and 1340.51 seconds (3173.74 work units)
Optimal objective  2.763464180e+05
Gurobi Optimizer version 10.0.0 build v10.0.0rc2 (linux64)

CPU model: Intel(R) Xeon(R) CPU E5-2630 v4 @ 2.20GHz, instruction set [SSE2|AVX|AVX2]
Thread count: 20 physical cores, 40 logical processors, using up to 10 threads

Optimize a model with 16037483 rows, 11021 columns and 48300938 nonzeros
Coefficient statistics:
  Matrix range     [1e+00, 1e+00]
  Objective range  [8e+01, 3e+02]
  Bounds range     [1e+00, 1e+00]
  RHS range        [1e+00, 1e+00]
Iteration    Objective       Primal Inf.    Dual Inf.      Time
       0    2.7634642e+05   3.381989e+03   0.000000e+00     10s
    1220    2.7634217e+05   3.067053e+06   0.000000e+00     62s
    1710    2.7633917e+05   1.593295e+07   0.000000e+00    111s
    2000    2.7633242e+05   5.717625e+06   0.000000e+00    150s
    2340    2.7631936e+05   1.095395e+06   0.000000e+00    188s
    2730    2.7631828e+05   6.321289e+05   0.000000e+00    229s
    3220    2.7631461e+05   1.046186e+06   0.000000e+00    254s
    3660    2.7631441e+05   9.773850e+03   0.000000e+00    284s
    4190    2.7631405e+05   1.242990e+03   0.000000e+00    315s
    4860    2.7631301e+05   8.165985e+01   0.000000e+00    346s
    5012    2.7631298e+05   0.000000e+00   0.000000e+00    356s

Solved in 5012 iterations and 355.69 seconds (610.45 work units)
Optimal objective  2.763129764e+05
Gurobi Optimizer version 10.0.0 build v10.0.0rc2 (linux64)

CPU model: Intel(R) Xeon(R) CPU E5-2630 v4 @ 2.20GHz, instruction set [SSE2|AVX|AVX2]
Thread count: 20 physical cores, 40 logical processors, using up to 10 threads

Optimize a model with 16044092 rows, 11021 columns and 48367028 nonzeros
Coefficient statistics:
  Matrix range     [1e+00, 1e+00]
  Objective range  [8e+01, 3e+02]
  Bounds range     [1e+00, 1e+00]
  RHS range        [1e+00, 1e+00]
Iteration    Objective       Primal Inf.    Dual Inf.      Time
       0    2.7631298e+05   6.464705e+03   0.000000e+00     10s
     910    2.7627489e+05   4.819904e+06   0.000000e+00     56s
    1200    2.7627376e+05   8.689957e+06   0.000000e+00    101s
    1400    2.7622863e+05   1.558065e+08   0.000000e+00    138s
    1620    2.7622661e+05   7.327440e+07   0.000000e+00    168s
    1810    2.7622081e+05   3.527760e+07   0.000000e+00    205s
    2140    2.7617590e+05   1.167876e+08   0.000000e+00    230s
    2450    2.7616256e+05   7.563343e+07   0.000000e+00    253s
    2650    2.7615998e+05   4.435401e+06   0.000000e+00    277s
    2880    2.7615404e+05   1.888581e+07   0.000000e+00    300s
    3080    2.7615273e+05   6.194507e+06   0.000000e+00    321s
    3260    2.7615214e+05   1.200836e+06   0.000000e+00    345s
    3430    2.7615188e+05   1.204381e+06   0.000000e+00    368s
    3600    2.7615188e+05   4.366672e+05   0.000000e+00    388s
    3780    2.7615188e+05   5.547860e+05   0.000000e+00    410s
    3950    2.7615188e+05   2.354768e+06   0.000000e+00    432s
    4160    2.7612094e+05   3.096489e+07   0.000000e+00    454s
    4370    2.7611991e+05   2.567776e+07   0.000000e+00    478s
    4590    2.7611827e+05   2.001128e+06   0.000000e+00    501s
    4780    2.7611707e+05   1.422857e+07   0.000000e+00    525s
    4980    2.7611647e+05   5.432600e+06   0.000000e+00    548s
    5180    2.7611631e+05   3.297984e+06   0.000000e+00    570s
    5360    2.7611630e+05   8.392183e+05   0.000000e+00    592s
    5550    2.7611585e+05   3.032087e+06   0.000000e+00    614s
    5730    2.7611578e+05   4.710498e+06   0.000000e+00    637s
    5940    2.7611501e+05   2.866227e+06   0.000000e+00    659s
    6120    2.7611499e+05   3.588633e+05   0.000000e+00    680s
    6340    2.7611413e+05   1.771784e+06   0.000000e+00    704s
    6580    2.7611244e+05   1.827450e+06   0.000000e+00    727s
    6780    2.7611171e+05   5.411950e+05   0.000000e+00    749s
    6950    2.7611171e+05   4.168030e+06   0.000000e+00    771s
    7190    2.7611085e+05   4.417206e+05   0.000000e+00    792s
    7390    2.7611082e+05   1.253429e+07   0.000000e+00    815s
    7610    2.7610977e+05   8.083489e+05   0.000000e+00    838s
    7820    2.7610977e+05   1.050255e+06   0.000000e+00    861s
    8020    2.7610970e+05   5.142260e+05   0.000000e+00    885s
    8220    2.7610967e+05   7.832552e+06   0.000000e+00    907s
    8470    2.7610894e+05   2.270186e+06   0.000000e+00    932s
    8720    2.7610450e+05   1.997188e+07   0.000000e+00    959s
    8910    2.7610450e+05   7.384293e+06   0.000000e+00    984s
    9100    2.7610446e+05   6.339218e+06   0.000000e+00   1009s
    9320    2.7610434e+05   2.668481e+06   0.000000e+00   1032s
    9500    2.7610434e+05   2.875550e+06   0.000000e+00   1056s
    9690    2.7610420e+05   1.223999e+06   0.000000e+00   1078s
    9900    2.7610334e+05   1.064513e+06   0.000000e+00   1100s
   10090    2.7610334e+05   1.383939e+06   0.000000e+00   1123s
   10280    2.7610334e+05   3.197423e+05   0.000000e+00   1144s
   10480    2.7610334e+05   2.395797e+06   0.000000e+00   1166s
   10670    2.7610334e+05   3.272134e+06   0.000000e+00   1189s
   10890    2.7610276e+05   3.810988e+06   0.000000e+00   1211s
   11090    2.7610263e+05   6.119782e+05   0.000000e+00   1232s
   11280    2.7610261e+05   5.484770e+05   0.000000e+00   1254s
   11510    2.7610254e+05   3.821563e+05   0.000000e+00   1277s
   11720    2.7610254e+05   6.136666e+05   0.000000e+00   1299s
   11940    2.7610254e+05   3.908277e+05   0.000000e+00   1322s
   12170    2.7610254e+05   2.060640e+06   0.000000e+00   1343s
   12430    2.7610254e+05   2.045634e+05   0.000000e+00   1366s
   12670    2.7610254e+05   1.530614e+05   0.000000e+00   1387s
   12960    2.7610231e+05   5.960286e+05   0.000000e+00   1410s
   13280    2.7610231e+05   4.338610e+04   0.000000e+00   1433s
   13690    2.7609996e+05   8.270685e+07   0.000000e+00   1458s
   14040    2.7609972e+05   3.171806e+06   0.000000e+00   1481s
   14320    2.7609972e+05   7.749476e+03   0.000000e+00   1504s
   14690    2.7609918e+05   2.228011e+06   0.000000e+00   1529s
   15130    2.7609886e+05   8.224638e+02   0.000000e+00   1558s
   15610    2.7609855e+05   4.320814e+03   0.000000e+00   1586s
   16120    2.7609848e+05   1.864333e+01   0.000000e+00   1619s
   16415    2.7609834e+05   0.000000e+00   0.000000e+00   1625s

Solved in 16415 iterations and 1630.60 seconds (4477.16 work units)
Optimal objective  2.760983380e+05
